(declare-fun var0 () String)
(assert (str.in.re var0 (re.++ (re.* (re.+ (str.to.re "D"))) (re.++ (re.union (re.+ (str.to.re "BBB")) (re.+ (str.to.re "CC"))) (re.++ (re.+ (re.* (str.to.re "A"))) (re.++ (re.+ (re.* (str.to.re "z"))) (re.++ (re.* (re.union (str.to.re "x") (str.to.re "yyy"))) (re.++ (re.* (re.+ (str.to.re "ww"))) (re.++ (re.union (re.* (str.to.re "uu")) (re.* (str.to.re "vv"))) (re.++ (re.+ (re.union (str.to.re "ss") (str.to.re "t"))) (re.++ (re.union (re.union (str.to.re "o") (str.to.re "p")) (re.union (str.to.re "qqq") (str.to.re "r"))) (re.++ (re.* (re.+ (str.to.re "nn"))) (re.++ (re.+ (re.union (str.to.re "l") (str.to.re "m"))) (re.++ (re.+ (re.* (str.to.re "k"))) (re.++ (re.* (re.+ (str.to.re "j"))) (re.++ (re.union (re.union (str.to.re "ff") (str.to.re "g")) (re.union (str.to.re "h") (str.to.re "ii"))) (re.++ (re.* (re.+ (str.to.re "ee"))) (re.++ (re.* (re.* (str.to.re "dd"))) (re.++ (re.+ (re.+ (str.to.re "cc"))) (re.++ (re.+ (re.+ (str.to.re "b"))) (re.++ (re.* (re.+ (str.to.re "a"))) (re.++ (re.union (re.union (str.to.re "666") (str.to.re "7")) (re.union (str.to.re "88") (str.to.re "99"))) (re.++ (re.+ (re.* (str.to.re "555"))) (re.++ (re.* (re.union (str.to.re "33") (str.to.re "444"))) (re.++ (re.union (re.* (str.to.re "111")) (re.* (str.to.re "222"))) (re.++ (re.+ (re.union (str.to.re "~~") (str.to.re "000"))) (re.++ (re.+ (re.union (str.to.re "|||") (str.to.re "}}}"))) (re.++ (re.+ (re.union (str.to.re "`") (str.to.re "{{{"))) (re.++ (re.* (re.union (str.to.re "^") (str.to.re "___"))) (re.++ (re.union (re.+ (str.to.re "\\")) (re.+ (str.to.re "]"))) (re.++ (re.* (re.union (str.to.re "@@") (str.to.re "[["))) (re.++ (re.+ (re.* (str.to.re "???"))) (re.++ (re.+ (re.union (str.to.re "=") (str.to.re ">"))) (re.++ (re.union (re.* (str.to.re ";;;")) (re.* (str.to.re "<<<"))) (re.++ (re.* (re.union (str.to.re "//") (str.to.re ":::"))) (re.++ (re.union (re.* (str.to.re ",")) (re.union (str.to.re "--") (str.to.re "..."))) (re.++ (re.+ (re.union (str.to.re "***") (str.to.re "+"))) (re.++ (re.* (re.+ (str.to.re ")"))) (re.++ (re.+ (re.+ (str.to.re "(("))) (re.++ (re.+ (re.union (str.to.re "&&") (str.to.re "''"))) (re.++ (re.union (re.+ (str.to.re "###")) (re.union (str.to.re "$$") (str.to.re "%"))) (re.++ (re.+ (re.union (str.to.re "!!!") (str.to.re """"))) (re.++ (re.* (re.union (str.to.re "Y") (str.to.re "ZZ"))) (re.++ (re.+ (re.* (str.to.re "X"))) (re.++ (re.union (re.+ (str.to.re "V")) (re.+ (str.to.re "WWW"))) (re.++ (re.union (re.* (str.to.re "TTT")) (re.* (str.to.re "U"))) (re.++ (re.+ (re.* (str.to.re "SS"))) (re.++ (re.+ (re.* (str.to.re "RR"))) (re.++ (re.* (re.union (str.to.re "PP") (str.to.re "QQ"))) (re.++ (re.* (re.* (str.to.re "O"))) (re.++ (re.+ (re.* (str.to.re "NNN"))) (re.++ (re.+ (re.* (str.to.re "MMM"))) (re.++ (re.union (re.* (str.to.re "JJ")) (re.union (str.to.re "KK") (str.to.re "L"))) (re.++ (re.+ (re.* (str.to.re "II"))) (re.++ (re.union (re.* (str.to.re "GGG")) (re.* (str.to.re "HH"))) (re.++ (re.union (re.+ (str.to.re "DD")) (re.union (str.to.re "EE") (str.to.re "F"))) (re.++ (re.* (re.+ (str.to.re "C"))) (re.++ (re.* (re.union (str.to.re "AA") (str.to.re "BBB"))) (re.++ (re.* (re.+ (str.to.re "z"))) (re.++ (re.* (re.* (str.to.re "y"))) (re.++ (re.* (re.+ (str.to.re "x"))) (re.++ (re.* (re.+ (str.to.re "www"))) (re.++ (re.union (re.* (str.to.re "uuu")) (re.+ (str.to.re "vvv"))) (re.++ (re.union (re.+ (str.to.re "sss")) (re.+ (str.to.re "ttt"))) (re.++ (re.+ (re.+ (str.to.re "r"))) (re.++ (re.+ (re.+ (str.to.re "qqq"))) (re.++ (re.union (re.* (str.to.re "ooo")) (re.* (str.to.re "ppp"))) (re.++ (re.* (re.* (str.to.re "nn"))) (re.++ (re.* (re.union (str.to.re "ll") (str.to.re "mmm"))) (re.++ (re.union (re.union (str.to.re "h") (str.to.re "i")) (re.union (str.to.re "j") (str.to.re "kkk"))) (re.++ (re.+ (re.union (str.to.re "f") (str.to.re "gg"))) (re.++ (re.union (re.union (str.to.re "bb") (str.to.re "ccc")) (re.union (str.to.re "d") (str.to.re "eee"))) (re.++ (re.* (re.* (str.to.re "aa"))) (re.++ (re.+ (re.+ (str.to.re "9"))) (re.++ (re.union (re.union (str.to.re "666") (str.to.re "7")) (re.* (str.to.re "8"))) (re.++ (re.* (re.+ (str.to.re "55"))) (re.++ (re.union (re.+ (str.to.re "333")) (re.+ (str.to.re "44"))) (re.union (re.union (str.to.re "00") (str.to.re "1")) (re.+ (str.to.re "222"))))))))))))))))))))))))))))))))))))))))))))))))))))))))))))))))))))))))))))))))
(assert (not (str.in.re var0 (re.++ (re.* (re.* (str.to.re "EEE"))) (re.++ (re.union (re.union (str.to.re "B") (str.to.re "CCC")) (re.+ (str.to.re "DDD"))) (re.++ (re.+ (re.+ (str.to.re "A"))) (re.++ (re.+ (re.* (str.to.re "z"))) (re.++ (re.+ (re.union (str.to.re "x") (str.to.re "yyy"))) (re.++ (re.union (re.* (str.to.re "vvv")) (re.* (str.to.re "ww"))) (re.++ (re.+ (re.+ (str.to.re "uu"))) (re.++ (re.union (re.union (str.to.re "r") (str.to.re "s")) (re.+ (str.to.re "t"))) (re.++ (re.union (re.union (str.to.re "ooo") (str.to.re "ppp")) (re.+ (str.to.re "qq"))) (re.++ (re.* (re.+ (str.to.re "n"))) (re.++ (re.+ (re.union (str.to.re "lll") (str.to.re "mm"))) (re.++ (re.union (re.+ (str.to.re "ii")) (re.union (str.to.re "jjj") (str.to.re "kk"))) (re.++ (re.+ (re.union (str.to.re "gg") (str.to.re "h"))) (re.++ (re.* (re.* (str.to.re "fff"))) (re.++ (re.+ (re.union (str.to.re "d") (str.to.re "e"))) (re.++ (re.* (re.* (str.to.re "ccc"))) (re.++ (re.* (re.+ (str.to.re "bbb"))) (re.++ (re.union (re.union (str.to.re "777") (str.to.re "88")) (re.union (str.to.re "999") (str.to.re "a"))) (re.++ (re.+ (re.* (str.to.re "66"))) (re.++ (re.* (re.* (str.to.re "55"))) (re.++ (re.+ (re.* (str.to.re "444"))) (re.++ (re.* (re.* (str.to.re "333"))) (re.++ (re.+ (re.+ (str.to.re "22"))) (re.++ (re.* (re.union (str.to.re "000") (str.to.re "11"))) (re.++ (re.+ (re.union (str.to.re "}") (str.to.re "~~"))) (re.++ (re.union (re.* (str.to.re "{")) (re.* (str.to.re "|||"))) (re.++ (re.+ (re.union (str.to.re "___") (str.to.re "`"))) (re.++ (re.+ (re.+ (str.to.re "^^"))) (re.++ (re.+ (re.* (str.to.re "]]"))) (re.++ (re.union (re.* (str.to.re "@@@")) (re.union (str.to.re "[") (str.to.re "\\"))) (re.++ (re.* (re.* (str.to.re "??"))) (re.++ (re.union (re.+ (str.to.re "=")) (re.* (str.to.re ">>"))) (re.++ (re.+ (re.+ (str.to.re "<"))) (re.++ (re.union (re.+ (str.to.re ":::")) (re.* (str.to.re ";;;"))) (re.++ (re.* (re.union (str.to.re "...") (str.to.re "/"))) (re.++ (re.* (re.+ (str.to.re "---"))) (re.++ (re.+ (re.union (str.to.re "+++") (str.to.re ",,"))) (re.++ (re.+ (re.* (str.to.re "***"))) (re.++ (re.* (re.* (str.to.re ")"))) (re.++ (re.* (re.union (str.to.re "'''") (str.to.re "("))) (re.++ (re.+ (re.+ (str.to.re "&&&"))) (re.++ (re.* (re.* (str.to.re "%%"))) (re.++ (re.* (re.* (str.to.re "$"))) (re.++ (re.* (re.union (str.to.re """""""") (str.to.re "###"))) (re.++ (re.+ (re.union (str.to.re "ZZZ") (str.to.re "!!"))) (re.++ (re.union (re.+ (str.to.re "WW")) (re.union (str.to.re "XXX") (str.to.re "YY"))) (re.++ (re.* (re.+ (str.to.re "VVV"))) (re.++ (re.* (re.+ (str.to.re "UUU"))) (re.++ (re.union (re.+ (str.to.re "SSS")) (re.* (str.to.re "T"))) (re.++ (re.* (re.+ (str.to.re "RR"))) (re.++ (re.union (re.union (str.to.re "O") (str.to.re "P")) (re.+ (str.to.re "QQ"))) (re.++ (re.* (re.+ (str.to.re "NN"))) (re.++ (re.union (re.union (str.to.re "JJ") (str.to.re "K")) (re.union (str.to.re "L") (str.to.re "M"))) (re.++ (re.* (re.union (str.to.re "HH") (str.to.re "I"))) (re.++ (re.+ (re.+ (str.to.re "G"))) (re.++ (re.+ (re.+ (str.to.re "FF"))) (re.++ (re.* (re.* (str.to.re "EEE"))) (re.++ (re.union (re.+ (str.to.re "BB")) (re.union (str.to.re "C") (str.to.re "D"))) (re.++ (re.* (re.union (str.to.re "zz") (str.to.re "AA"))) (re.++ (re.union (re.* (str.to.re "xxx")) (re.+ (str.to.re "yy"))) (re.++ (re.union (re.union (str.to.re "uuu") (str.to.re "v")) (re.* (str.to.re "www"))) (re.++ (re.* (re.union (str.to.re "ss") (str.to.re "tt"))) (re.++ (re.union (re.union (str.to.re "oo") (str.to.re "pp")) (re.union (str.to.re "q") (str.to.re "rr"))) (re.++ (re.+ (re.* (str.to.re "n"))) (re.++ (re.union (re.+ (str.to.re "lll")) (re.* (str.to.re "m"))) (re.++ (re.+ (re.* (str.to.re "kkk"))) (re.++ (re.union (re.union (str.to.re "hh") (str.to.re "ii")) (re.* (str.to.re "jjj"))) (re.++ (re.* (re.union (str.to.re "fff") (str.to.re "gg"))) (re.++ (re.+ (re.union (str.to.re "ddd") (str.to.re "eee"))) (re.++ (re.* (re.* (str.to.re "cc"))) (re.++ (re.+ (re.union (str.to.re "aa") (str.to.re "bbb"))) (re.++ (re.+ (re.* (str.to.re "99"))) (re.++ (re.+ (re.union (str.to.re "77") (str.to.re "8"))) (re.++ (re.union (re.union (str.to.re "444") (str.to.re "5")) (re.+ (str.to.re "6"))) (re.++ (re.union (re.union (str.to.re "11") (str.to.re "222")) (re.+ (str.to.re "333"))) (re.+ (re.* (str.to.re "0")))))))))))))))))))))))))))))))))))))))))))))))))))))))))))))))))))))))))))))))))
(check-sat)